p cnf 37 59
c 1 TankWar
c 2 Platform
c 3 PC
c 4 Handy
c 5 Tools
c 6 Beschleunigung
c 7 einfrieren
c 8 Bombe
c 9 Energie
c 10 Feuerkraft
c 11 Mars
c 12 explodieren
c 13 GUI
c 14 Map
c 15 M_240
c 16 M_600
c 17 M_780
c 18 Image
c 19 fuer_PC
c 20 fuer_Handy
c 21 IMG_tool
c 22 Record
c 23 Re_fuer_PC
c 24 Re_fuer_Handy
c 25 Soundeffekt
c 26 Sound_fuer_pc
c 27 Sound_fuer_Handy
c 28 Language
c 29 EN
c 30 DE
c 31 Tanks
c 32 USA_M1Abrams
c 33 Germany_Leopard
c 34 China_Type99
c 35 AI
c 36 Easy
c 37 Hard
1
-1 2
-2 1
-2 3 4
-3 -4
-3 2
-4 2
-5 1
-5 6 7 8 9 10 11
-6 5
-7 5
-8 5
-9 5
-10 5
-11 5
-12 1
-1 13
-13 1
-13 14
-14 13
-14 15 16 17
-15 -16
-15 -17
-15 14
-16 -17
-16 14
-17 14
-18 13
-19 18
-20 18
-21 18
-22 1
-22 23 24
-23 -24
-23 22
-24 22
-25 1
-25 26 27
-26 -27
-26 25
-27 25
-1 28
-28 1
-28 29 30
-29 -30
-29 28
-30 28
-1 31
-31 1
-31 32 33 34
-32 31
-33 31
-34 31
-1 35
-35 1
-35 36 37
-36 -37
-36 35
-37 35